/* Objective function */
max: +C241;

/* Constraints */
+C1 +C2 +C3 +C4 +C5 +C6 +C7 +C8 +C9 +C10 +C11 +C12 +C13 +C14 +C15 +C16 +C17 +C18 +C19 +C20 +C21 +C22
 +C23 +C24 +C25 +C26 +C27 +C28 +C29 +C30 +C31 +C32 +C33 +C34 +C35 +C36 +C37 +C38 +C39 +C40 +C41 +C42
 +C43 +C44 +C45 +C46 +C47 +C48 +C49 +C50 +C51 +C52 +C53 +C54 +C55 +C56 +C57 +C58 +C59 +C60 +C61 +C62
 +C63 +C64 +C65 +C66 +C67 +C68 +C69 +C70 +C71 +C72 +C73 +C74 +C75 +C76 +C77 +C78 +C79 +C80 +C81 +C82
 +C83 +C84 +C85 +C86 +C87 +C88 +C89 +C90 +C91 +C92 +C93 +C94 +C95 +C96 +C97 +C98 +C99 +C100 +C101 +C102
 +C103 +C104 +C105 +C106 +C107 +C108 +C109 +C110 +C111 +C112 +C113 +C114 +C115 +C116 +C117 +C118 +C119
 +C120 +C121 +C122 +C123 +C124 +C125 +C126 +C127 +C128 +C129 +C130 +C131 +C132 +C133 +C134 +C135 +C136
 +C137 +C138 +C139 +C140 +C141 +C142 +C143 +C144 +C145 +C146 +C147 +C148 +C149 +C150 +C151 +C152 +C153
 +C154 +C155 +C156 +C157 +C158 +C159 +C160 +C161 +C162 +C163 +C164 +C165 +C166 +C167 +C168 +C169 +C170
 +C171 +C172 +C173 +C174 +C175 +C176 +C177 +C178 +C179 +C180 +C181 +C182 +C183 +C184 +C185 +C186 +C187
 +C188 +C189 +C190 +C191 +C192 +C193 +C194 +C195 +C196 +C197 +C198 +C199 +C200 +C201 +C202 +C203 +C204
 +C205 +C206 +C207 +C208 +C209 +C210 +C211 +C212 +C213 +C214 +C215 +C216 +C217 +C218 +C219 +C220 +C221
 +C222 +C223 +C224 +C225 +C226 +C227 +C228 +C229 +C230 +C231 +C232 +C233 +C234 +C235 +C236 +C237 +C238
 +C239 +C240 = 60;
+0.247766476842 C1 +0.322238498712 C2 +0.22763969637 C3 +0.201813706611 C4 +0.27952120115 C5 +0.299600895652 C6
 +0.330394124259 C7 +0.27582900817 C8 +0.223850924471 C9 +0.318462126954 C10 +0.248270069058 C11 +0.230811248738 C12
 +0.263190488931 C13 +0.270157725196 C14 +0.258190344944 C15 +0.328341812123 C16 +0.218011912466 C17
 +0.35243037587 C18 +0.260468269973 C19 +0.276989129716 C20 +0.263567913412 C21 +0.238717809571 C22 +0.292460579467 C23
 +0.268235518965 C24 +0.343781462913 C25 +0.271460026358 C26 +0.360948120192 C27 +0.328433666001 C28
 +0.279581989576 C29 +0.249057825743 C30 +0.294203724009 C31 +0.215839845822 C32 +0.284071411584 C33
 +0.204188207765 C34 +0.258994719311 C35 +0.27309714965 C36 +0.299892396173 C37 +0.317939656992 C38 +0.204269463634 C39
 +0.352418961581 C40 +0.256968279365 C41 +0.238198878076 C42 +0.304041974381 C43 +0.32391974553 C44 +0.207415907825 C45
 +0.260868250272 C46 +0.368828804483 C47 +0.302485754406 C48 +0.318300460507 C49 +0.229983678316 C50
 +0.318066449925 C51 +0.321226094239 C52 +0.351376185049 C53 +0.303416264564 C54 +0.29197555454 C55 +0.289692044463 C56
 +0.204166327226 C57 +0.281190885296 C58 +0.281594380266 C59 +0.247362396046 C60 +0.29703470177 C61 +0.341157791712 C62
 +0.297511523236 C63 +0.310980903912 C64 +0.330700663007 C65 +0.272031175759 C66 +0.306765655633 C67
 +0.22955913953 C68 +0.278200314725 C69 +0.28696749126 C70 +0.275576644409 C71 +0.263554424927 C72 +0.27388313815 C73
 +0.308662536083 C74 +0.284069441022 C75 +0.284344944283 C76 +0.303510096432 C77 +0.285315226922 C78
 +0.284096765467 C79 +0.256720106392 C80 +0.300247258595 C81 +0.302658735816 C82 +0.234393416992 C83
 +0.257517443919 C84 +0.26218862107 C85 +0.253101683426 C86 +0.314786690399 C87 +0.255778640178 C88 +0.286514189928 C89
 +0.249867351884 C90 +0.255328548998 C91 +0.262344961911 C92 +0.274778314838 C93 +0.283221625113 C94
 +0.255713722524 C95 +0.301038859035 C96 +0.306945642661 C97 +0.264156276821 C98 +0.275652773907 C99
 +0.350510805771 C100 +0.225121166622 C101 +0.225238651312 C102 +0.277408050671 C103 +0.248505828315 C104
 +0.220875005862 C105 +0.220267115435 C106 +0.256613939483 C107 +0.243642291632 C108 +0.308260988696 C109
 +0.253058094433 C110 +0.275508992206 C111 +0.292087220745 C112 +0.259380031791 C113 +0.261729350216 C114
 +0.211230813055 C115 +0.307281396697 C116 +0.255455220858 C117 +0.233195762657 C118 +0.285107140331 C119
 +0.283106528521 C120 +0.291169941304 C121 +0.286588195544 C122 +0.270585759142 C123 +0.245433936426 C124
 +0.232077137888 C125 +0.307363888221 C126 +0.352405992984 C127 +0.184949391936 C128 +0.274517798838 C129
 +0.222211423931 C130 +0.254560020655 C131 +0.235478829122 C132 +0.220417672298 C133 +0.372345878179 C134
 +0.293679444208 C135 +0.222633698671 C136 +0.256633521728 C137 +0.256501499769 C138 +0.265863517946 C139
 +0.265127736209 C140 +0.342323032413 C141 +0.276474597371 C142 +0.359090369167 C143 +0.250098809013 C144
 +0.337530662045 C145 +0.255642415578 C146 +0.296472600819 C147 +0.296361413197 C148 +0.305576145225 C149
 +0.258092738195 C150 +0.267850544997 C151 +0.290906890523 C152 +0.343667568727 C153 +0.28904048353 C154
 +0.280173652591 C155 +0.262319361693 C156 +0.248861787813 C157 +0.298748362898 C158 +0.272724309722 C159
 +0.306863627392 C160 +0.273651770824 C161 +0.184836802045 C162 +0.218971536187 C163 +0.289197346633 C164
 +0.303463580711 C165 +0.242996503059 C166 +0.288779737097 C167 +0.264633814217 C168 +0.295349807287 C169
 +0.349290793361 C170 +0.283110262821 C171 +0.238437867486 C172 +0.257464150614 C173 +0.35658672994 C174
 +0.263531685593 C175 +0.238477366739 C176 +0.270312563768 C177 +0.340111168865 C178 +0.273408447481 C179
 +0.2178315215 C180 +0.228232865636 C181 +0.292962737237 C182 +0.279336081277 C183 +0.210730058672 C184
 +0.274590478716 C185 +0.236966170552 C186 +0.309153468855 C187 +0.239738828218 C188 +0.250069194748 C189
 +0.291059821956 C190 +0.217385291327 C191 +0.275027584792 C192 +0.195984838153 C193 +0.266589366756 C194
 +0.217130662799 C195 +0.309810205567 C196 +0.282454441763 C197 +0.201391342743 C198 +0.263790979511 C199
 +0.282020780952 C200 +0.27564177671 C201 +0.329735801574 C202 +0.232486782707 C203 +0.238690779027 C204
 +0.307157125902 C205 +0.227226782609 C206 +0.268893475198 C207 +0.324279313088 C208 +0.222050941708 C209
 +0.187945048623 C210 +0.240501006548 C211 +0.269864759799 C212 +0.312040962554 C213 +0.284472965701 C214
 +0.283524982021 C215 +0.291443209253 C216 +0.324921650249 C217 +0.259560632515 C218 +0.316852302938 C219
 +0.264971889435 C220 +0.261980581535 C221 +0.276235213591 C222 +0.331814891281 C223 +0.344310221374 C224
 +0.301094594314 C225 +0.217348428625 C226 +0.234377877829 C227 +0.303712876602 C228 +0.24114958392 C229
 +0.245299310326 C230 +0.273520941236 C231 +0.350790086523 C232 +0.318999780384 C233 +0.298684084317 C234
 +0.278045602045 C235 +0.217785094743 C236 +0.34890517578 C237 +0.322924525799 C238 +0.204683797778 C239
 +0.291668536346 C240 -C241 >= 0;

/* Variable bounds */
C1 <= 1;
C2 <= 1;
C3 <= 1;
C4 <= 1;
C5 <= 1;
C6 <= 1;
C7 <= 1;
C8 <= 1;
C9 <= 1;
C10 <= 1;
C11 <= 1;
C12 <= 1;
C13 <= 1;
C14 <= 1;
C15 <= 1;
C16 <= 1;
C17 <= 1;
C18 <= 1;
C19 <= 1;
C20 <= 1;
C21 <= 1;
C22 <= 1;
C23 <= 1;
C24 <= 1;
C25 <= 1;
C26 <= 1;
C27 <= 1;
C28 <= 1;
C29 <= 1;
C30 <= 1;
C31 <= 1;
C32 <= 1;
C33 <= 1;
C34 <= 1;
C35 <= 1;
C36 <= 1;
C37 <= 1;
C38 <= 1;
C39 <= 1;
C40 <= 1;
C41 <= 1;
C42 <= 1;
C43 <= 1;
C44 <= 1;
C45 <= 1;
C46 <= 1;
C47 <= 1;
C48 <= 1;
C49 <= 1;
C50 <= 1;
C51 <= 1;
C52 <= 1;
C53 <= 1;
C54 <= 1;
C55 <= 1;
C56 <= 1;
C57 <= 1;
C58 <= 1;
C59 <= 1;
C60 <= 1;
C61 <= 1;
C62 <= 1;
C63 <= 1;
C64 <= 1;
C65 <= 1;
C66 <= 1;
C67 <= 1;
C68 <= 1;
C69 <= 1;
C70 <= 1;
C71 <= 1;
C72 <= 1;
C73 <= 1;
C74 <= 1;
C75 <= 1;
C76 <= 1;
C77 <= 1;
C78 <= 1;
C79 <= 1;
C80 <= 1;
C81 <= 1;
C82 <= 1;
C83 <= 1;
C84 <= 1;
C85 <= 1;
C86 <= 1;
C87 <= 1;
C88 <= 1;
C89 <= 1;
C90 <= 1;
C91 <= 1;
C92 <= 1;
C93 <= 1;
C94 <= 1;
C95 <= 1;
C96 <= 1;
C97 <= 1;
C98 <= 1;
C99 <= 1;
C100 <= 1;
C101 <= 1;
C102 <= 1;
C103 <= 1;
C104 <= 1;
C105 <= 1;
C106 <= 1;
C107 <= 1;
C108 <= 1;
C109 <= 1;
C110 <= 1;
C111 <= 1;
C112 <= 1;
C113 <= 1;
C114 <= 1;
C115 <= 1;
C116 <= 1;
C117 <= 1;
C118 <= 1;
C119 <= 1;
C120 <= 1;
C121 <= 1;
C122 <= 1;
C123 <= 1;
C124 <= 1;
C125 <= 1;
C126 <= 1;
C127 <= 1;
C128 <= 1;
C129 <= 1;
C130 <= 1;
C131 <= 1;
C132 <= 1;
C133 <= 1;
C134 <= 1;
C135 <= 1;
C136 <= 1;
C137 <= 1;
C138 <= 1;
C139 <= 1;
C140 <= 1;
C141 <= 1;
C142 <= 1;
C143 <= 1;
C144 <= 1;
C145 <= 1;
C146 <= 1;
C147 <= 1;
C148 <= 1;
C149 <= 1;
C150 <= 1;
C151 <= 1;
C152 <= 1;
C153 <= 1;
C154 <= 1;
C155 <= 1;
C156 <= 1;
C157 <= 1;
C158 <= 1;
C159 <= 1;
C160 <= 1;
C161 <= 1;
C162 <= 1;
C163 <= 1;
C164 <= 1;
C165 <= 1;
C166 <= 1;
C167 <= 1;
C168 <= 1;
C169 <= 1;
C170 <= 1;
C171 <= 1;
C172 <= 1;
C173 <= 1;
C174 <= 1;
C175 <= 1;
C176 <= 1;
C177 <= 1;
C178 <= 1;
C179 <= 1;
C180 <= 1;
C181 <= 1;
C182 <= 1;
C183 <= 1;
C184 <= 1;
C185 <= 1;
C186 <= 1;
C187 <= 1;
C188 <= 1;
C189 <= 1;
C190 <= 1;
C191 <= 1;
C192 <= 1;
C193 <= 1;
C194 <= 1;
C195 <= 1;
C196 <= 1;
C197 <= 1;
C198 <= 1;
C199 <= 1;
C200 <= 1;
C201 <= 1;
C202 <= 1;
C203 <= 1;
C204 <= 1;
C205 <= 1;
C206 <= 1;
C207 <= 1;
C208 <= 1;
C209 <= 1;
C210 <= 1;
C211 <= 1;
C212 <= 1;
C213 <= 1;
C214 <= 1;
C215 <= 1;
C216 <= 1;
C217 <= 1;
C218 <= 1;
C219 <= 1;
C220 <= 1;
C221 <= 1;
C222 <= 1;
C223 <= 1;
C224 <= 1;
C225 <= 1;
C226 <= 1;
C227 <= 1;
C228 <= 1;
C229 <= 1;
C230 <= 1;
C231 <= 1;
C232 <= 1;
C233 <= 1;
C234 <= 1;
C235 <= 1;
C236 <= 1;
C237 <= 1;
C238 <= 1;
C239 <= 1;
C240 <= 1;

/* Integer definitions */
int C1,C2,C3,C4,C5,C6,C7,C8,C9,C10,C11,C12,C13,C14,C15,C16,C17,C18,C19,C20,C21,C22,C23,C24,C25,C26,C27,C28,C29,C30,C31,C32,C33,C34,C35,C36,C37,C38,C39,C40,C41,C42,C43,C44,C45,C46,C47,C48,C49,C50,C51,C52,C53,C54,C55,C56,C57,C58,C59,C60,C61,C62,C63,C64,C65,C66,C67,C68,C69,C70,C71,C72,C73,C74,C75,C76,C77,C78,C79,C80,C81,C82,C83,C84,C85,C86,C87,C88,C89,C90,C91,C92,C93,C94,C95,C96,C97,C98,C99,C100,C101,C102,C103,C104,C105,C106,C107,C108,C109,C110,C111,C112,C113,C114,C115,C116,C117,C118,C119,C120,C121,C122,C123,C124,C125,C126,C127,C128,C129,C130,C131,C132,C133,C134,C135,C136,C137,C138,C139,C140,C141,C142,C143,C144,C145,C146,C147,C148,C149,C150,C151,C152,C153,C154,C155,C156,C157,C158,C159,C160,C161,C162,C163,C164,C165,C166,C167,C168,C169,C170,C171,C172,C173,C174,C175,C176,C177,C178,C179,C180,C181,C182,C183,C184,C185,C186,C187,C188,C189,C190,C191,C192,C193,C194,C195,C196,C197,C198,C199,C200,C201,C202,C203,C204,C205,C206,C207,C208,C209,C210,C211,C212,C213,C214,C215,C216,C217,C218,C219,C220,C221,C222,C223,C224,C225,C226,C227,C228,C229,C230,C231,C232,C233,C234,C235,C236,C237,C238,C239,C240;
